n_machines = 5;
n_resources = 7;
n_jobs = 78;
horizon = 36561;
LB = 10444;
n_jobs_per_resource = [10, 17, 4, 19, 3, 19, 6];
duration = [633, 357, 80, 971, 451, 257, 397, 743, 395, 477, 741, 836, 931, 848, 376, 220, 259, 579, 193, 695, 35, 968, 429, 284, 22, 317, 283, 275, 139, 997, 91, 173, 877, 284, 303, 273, 818, 476, 254, 37, 1, 97, 591, 340, 540, 949, 403, 609, 397, 480, 387, 465, 301, 376, 520, 694, 992, 601, 322, 446, 884, 738, 368, 302, 687, 916, 974, 572, 368, 63, 477, 144, 862, 250, 364, 470, 526, 311]